# density fitted hartree fock 
molecule h2o {
0 1
H 0.0000000000 0.0000000000 1.1222222222
H 0.0000000000 0.9519808279 -0.1678599051
O 0.0000000000 0.0000000000 0.0000000000
}

set basis 6-31g
energy('hf')

