# density fitted hartree fock 
molecule h2o {
noreorient
nocom
0 1
H 0.00 0.00 0.00
H 0.00 0.00 0.00
O 0.00 0.00 0.00
}

set scf_type pk
set basis 6-31g
gradient('hf')

