# density fitted hartree fock 
molecule h2o {
0 1
H 0.0000000000 0.0000000000 0.8888888889
H 0.0000000000 0.8649287738 -0.2049918851
O 0.0000000000 0.0000000000 0.0000000000
}

set basis 6-31g
energy('hf')

