molecule h2o {
noreorient
nocom
0 1
H 0.00 1.00 0.00
H 0.00 0.00 1.00
O 0.00 0.00 0.00
}

set scf_type pk
set basis 6-31g
set rms_force_g_convergence 1e-8
optimize('hf')

