# density fitted hartree fock 
molecule h2o {
0 1
H 0.0000000000 0.0000000000 1.2000000000
H 0.0000000000 1.1918860293 -0.1393114970
O 0.0000000000 0.0000000000 0.0000000000
}

set basis 6-31g
energy('hf')

