memory 1000 mb

molecule h2o {
0 1
O
H 1 1.0
H 1 1.0  2 104.5
}

set {
    basis 6-31g
    reference rhf
}


optimize('ccsd')
