molecule nonsense {
0 1
O
H 1 1.0
H 1 1.0 2 104.5
H 1 1.0 2 100.00 3 180.0
H 1 1.0 2 100.00 3 180.0
H 1 1.0 2 100.00 3 180.0
H 1 1.0 2 100.00 3 180.0
H 1 1.0 2 100.00 3 180.0
H 1 1.0 2 100.00 3 180.0
H 1 1.0 2 100.00 3 180.0
H 1 1.0 2 100.00 3 180.0
H 1 1.0 2 100.00 3 180.0
H 1 1.0 2 100.00 3 180.0
}

set {
  basis cc-pvdz
  df_basis_scf cc-pvdz-jkfit
  df_basis_cc cc-pvdz-ri
  scf_type df
  guess sad
  freeze_core true
  cc_type df
  qc_module occ
}

energy('ccsd(t)')

