molecule nonsense {
0 1
S   -0.381750502579    0.000296284511    0.011337500068
Ar    0.680303243095   -1.152952546222    0.019173229298
As   -0.301996049266   -0.050422602488   -1.672364010650
Na   -0.266878829028    0.005122848830    1.690780556679
C    0.635601713926    1.459889602387   -0.063700133640
O    0.022171768799    2.234181839574   -0.521802906911
Br    0.953900183180    1.734792897888    0.935792575982
Bi    1.465991423933    1.227098124870   -0.723792910954
}

set {
  basis cc-pvdz
  df_basis_scf cc-pvdz-jkfit
  df_basis_cc cc-pvdz-ri
  scf_type df
  guess sad
  freeze_core true
  cc_type df
  qc_module occ
}

energy('ccsd(t)')
