# density-fitted hartree fock energies and gradients with 6-31g
molecule h2o {
0 1
H 0.0000000000 0.0000000000 1.0000000000
H 0.0000000000 1.0806465139 -0.3933231648
O 0.0000000000 0.0000000000 0.0000000000
}

set basis 6-31g

gradient('mp2')
