# density fitted hartree fock 
molecule h2o {
0 1
H 0.0000000000 0.0000000000 1.0055555556
H 0.0000000000 0.7804836908 -0.3366678011
O 0.0000000000 0.0000000000 0.0000000000
}

set basis 6-31g
energy('hf')

