# density fitted hartree fock 
molecule h2o {
0 1
H 0.0000000000 0.0000000000 0.9666666667
H 0.0000000000 0.8753846693 -0.1543539357
O 0.0000000000 0.0000000000 0.0000000000
}

set basis 6-31g
energy('hf')

