# density fitted hartree fock 
molecule h2o {
0 1
H 0.0000000000 0.0000000000 1.0833333333
H 0.0000000000 0.8370865901 -0.1476009510
O 0.0000000000 0.0000000000 0.0000000000
}

set basis 6-31g
energy('hf')

