# density fitted hartree fock 
molecule h2o {
0 1
H 0.0000000000 0.0000000000 1.1611111111
H 0.0000000000 1.0055517188 -0.5805555556
O 0.0000000000 0.0000000000 0.0000000000
}

set basis 6-31g
energy('hf')

