# density fitted hartree fock 
molecule h2o {
0 1
H 0.0000000000 0.0000000000 1.0444444444
H 0.0000000000 0.8718259315 -0.3173186885
O 0.0000000000 0.0000000000 0.0000000000
}

set basis 6-31g
energy('hf')

