# density fitted hartree fock 
molecule h2o {
0 1
H 0.0000000000 0.0000000000 1.1222222222
H 0.0000000000 0.9215044763 -0.1077084259
O 0.0000000000 0.0000000000 0.0000000000
}

set basis 6-31g
energy('hf')

